&PROJWFC
  prefix= 'al',
  outdir= './tmp/',
  filpdos= 'al_pdos.dat',
  filproj= 'al_proj.dat'
/